% Generated by MiniZinc 2.9.3
% Solver library: /home/void/Workspace-Research/Code/fzn-minicpp/minizinc
% Command line invocation: minizinc --solver org.minicpp.ml --compile --no-output-ozn rcpsp-sat.mzn dzn/J60_23_3.dzn -D makespan=78 -o fzn-sat/J60_23_3.fzn 

predicate int_lin_le_imp(array [int] of int: as,array [int] of var int: bs,int: c,var bool: r);
predicate minicpp_cumulative(array [int] of var int: s,array [int] of var int: d,array [int] of var int: r,var int: b);
array [1..2] of int: X_INTRODUCED_78_ = [1,-1];
array [1..28] of int: X_INTRODUCED_145_ = [8,1,6,2,3,4,10,9,9,9,4,2,2,3,7,3,6,4,3,3,7,1,1,7,5,2,2,3];
array [1..28] of int: X_INTRODUCED_146_ = [10,8,3,7,10,6,1,8,8,8,5,6,6,4,6,1,4,5,5,6,8,5,5,5,10,9,7,5];
array [1..30] of int: X_INTRODUCED_148_ = [9,1,1,1,5,2,2,2,2,3,10,10,1,3,3,2,5,4,3,2,2,1,1,7,8,2,2,3,6,5];
array [1..30] of int: X_INTRODUCED_149_ = [10,1,1,2,6,10,2,3,8,8,8,8,5,9,4,6,9,6,4,1,4,1,2,4,3,10,10,9,7,5];
array [1..31] of int: X_INTRODUCED_151_ = [5,9,9,2,3,9,9,9,8,3,10,10,7,10,4,7,7,2,8,2,3,5,8,2,9,8,6,7,5,6,9];
array [1..31] of int: X_INTRODUCED_152_ = [10,8,3,1,9,1,2,6,1,2,3,8,5,6,4,9,4,1,2,3,4,10,3,5,5,6,8,9,5,7,5];
array [1..32] of int: X_INTRODUCED_154_ = [7,8,7,10,1,8,7,9,7,9,9,1,8,8,7,6,5,3,1,10,8,7,8,10,7,1,4,2,2,3,5,6];
array [1..32] of int: X_INTRODUCED_155_ = [10,8,1,1,7,6,3,1,8,8,3,5,3,5,9,4,8,1,1,6,2,3,4,10,3,5,5,5,9,9,7,5];
var 0..330: X_INTRODUCED_16_;
var 0..330: X_INTRODUCED_17_;
var 0..330: X_INTRODUCED_18_;
var 0..330: X_INTRODUCED_19_;
var 0..330: X_INTRODUCED_20_;
var 0..330: X_INTRODUCED_21_;
var 0..330: X_INTRODUCED_22_;
var 0..330: X_INTRODUCED_23_;
var 0..330: X_INTRODUCED_24_;
var 0..330: X_INTRODUCED_25_;
var 0..330: X_INTRODUCED_26_;
var 0..330: X_INTRODUCED_27_;
var 0..330: X_INTRODUCED_28_;
var 0..330: X_INTRODUCED_29_;
var 0..330: X_INTRODUCED_30_;
var 0..330: X_INTRODUCED_31_;
var 0..330: X_INTRODUCED_32_;
var 0..330: X_INTRODUCED_33_;
var 0..330: X_INTRODUCED_34_;
var 0..330: X_INTRODUCED_35_;
var 0..330: X_INTRODUCED_36_;
var 0..330: X_INTRODUCED_37_;
var 0..330: X_INTRODUCED_38_;
var 0..330: X_INTRODUCED_39_;
var 0..330: X_INTRODUCED_40_;
var 0..330: X_INTRODUCED_41_;
var 0..330: X_INTRODUCED_42_;
var 0..330: X_INTRODUCED_43_;
var 0..330: X_INTRODUCED_44_;
var 0..330: X_INTRODUCED_45_;
var 0..330: X_INTRODUCED_46_;
var 0..330: X_INTRODUCED_47_;
var 0..330: X_INTRODUCED_48_;
var 0..330: X_INTRODUCED_49_;
var 0..330: X_INTRODUCED_50_;
var 0..330: X_INTRODUCED_51_;
var 0..330: X_INTRODUCED_52_;
var 0..330: X_INTRODUCED_53_;
var 0..330: X_INTRODUCED_54_;
var 0..330: X_INTRODUCED_55_;
var 0..330: X_INTRODUCED_56_;
var 0..330: X_INTRODUCED_57_;
var 0..330: X_INTRODUCED_58_;
var 0..330: X_INTRODUCED_59_;
var 0..330: X_INTRODUCED_60_;
var 0..330: X_INTRODUCED_61_;
var 0..330: X_INTRODUCED_62_;
var 0..330: X_INTRODUCED_63_;
var 0..330: X_INTRODUCED_64_;
var 0..330: X_INTRODUCED_65_;
var 0..330: X_INTRODUCED_66_;
var 0..330: X_INTRODUCED_67_;
var 0..330: X_INTRODUCED_68_;
var 0..330: X_INTRODUCED_69_;
var 0..330: X_INTRODUCED_70_;
var 0..330: X_INTRODUCED_71_;
var 0..330: X_INTRODUCED_72_;
var 0..71: X_INTRODUCED_73_;
var 0..71: X_INTRODUCED_74_;
var 0..73: X_INTRODUCED_75_;
var bool: X_INTRODUCED_135_ ::var_is_introduced :: is_defined_var;
var bool: X_INTRODUCED_136_ ::var_is_introduced :: is_defined_var;
var bool: X_INTRODUCED_137_ ::var_is_introduced :: is_defined_var;
var bool: X_INTRODUCED_138_ ::var_is_introduced :: is_defined_var;
var bool: X_INTRODUCED_139_ ::var_is_introduced :: is_defined_var;
var bool: X_INTRODUCED_140_ ::var_is_introduced :: is_defined_var;
var bool: X_INTRODUCED_141_ ::var_is_introduced :: is_defined_var;
var bool: X_INTRODUCED_142_ ::var_is_introduced :: is_defined_var;
var bool: X_INTRODUCED_143_ ::var_is_introduced :: is_defined_var;
var bool: X_INTRODUCED_144_ ::var_is_introduced :: is_defined_var;
array [1..60] of var int: s:: output_array([1..60]) = [X_INTRODUCED_16_,X_INTRODUCED_17_,X_INTRODUCED_18_,X_INTRODUCED_19_,X_INTRODUCED_20_,X_INTRODUCED_21_,X_INTRODUCED_22_,X_INTRODUCED_23_,X_INTRODUCED_24_,X_INTRODUCED_25_,X_INTRODUCED_26_,X_INTRODUCED_27_,X_INTRODUCED_28_,X_INTRODUCED_29_,X_INTRODUCED_30_,X_INTRODUCED_31_,X_INTRODUCED_32_,X_INTRODUCED_33_,X_INTRODUCED_34_,X_INTRODUCED_35_,X_INTRODUCED_36_,X_INTRODUCED_37_,X_INTRODUCED_38_,X_INTRODUCED_39_,X_INTRODUCED_40_,X_INTRODUCED_41_,X_INTRODUCED_42_,X_INTRODUCED_43_,X_INTRODUCED_44_,X_INTRODUCED_45_,X_INTRODUCED_46_,X_INTRODUCED_47_,X_INTRODUCED_48_,X_INTRODUCED_49_,X_INTRODUCED_50_,X_INTRODUCED_51_,X_INTRODUCED_52_,X_INTRODUCED_53_,X_INTRODUCED_54_,X_INTRODUCED_55_,X_INTRODUCED_56_,X_INTRODUCED_57_,X_INTRODUCED_58_,X_INTRODUCED_59_,X_INTRODUCED_60_,X_INTRODUCED_61_,X_INTRODUCED_62_,X_INTRODUCED_63_,X_INTRODUCED_64_,X_INTRODUCED_65_,X_INTRODUCED_66_,X_INTRODUCED_67_,X_INTRODUCED_68_,X_INTRODUCED_69_,X_INTRODUCED_70_,X_INTRODUCED_71_,X_INTRODUCED_72_,X_INTRODUCED_73_,X_INTRODUCED_74_,X_INTRODUCED_75_];
array [1..28] of var int: X_INTRODUCED_147_ ::var_is_introduced  = [X_INTRODUCED_16_,X_INTRODUCED_17_,X_INTRODUCED_19_,X_INTRODUCED_22_,X_INTRODUCED_28_,X_INTRODUCED_29_,X_INTRODUCED_31_,X_INTRODUCED_34_,X_INTRODUCED_35_,X_INTRODUCED_40_,X_INTRODUCED_41_,X_INTRODUCED_44_,X_INTRODUCED_48_,X_INTRODUCED_50_,X_INTRODUCED_54_,X_INTRODUCED_55_,X_INTRODUCED_58_,X_INTRODUCED_61_,X_INTRODUCED_62_,X_INTRODUCED_63_,X_INTRODUCED_64_,X_INTRODUCED_65_,X_INTRODUCED_66_,X_INTRODUCED_67_,X_INTRODUCED_68_,X_INTRODUCED_71_,X_INTRODUCED_74_,X_INTRODUCED_75_];
array [1..30] of var int: X_INTRODUCED_150_ ::var_is_introduced  = [X_INTRODUCED_16_,X_INTRODUCED_18_,X_INTRODUCED_20_,X_INTRODUCED_26_,X_INTRODUCED_27_,X_INTRODUCED_28_,X_INTRODUCED_32_,X_INTRODUCED_33_,X_INTRODUCED_34_,X_INTRODUCED_35_,X_INTRODUCED_37_,X_INTRODUCED_40_,X_INTRODUCED_41_,X_INTRODUCED_42_,X_INTRODUCED_43_,X_INTRODUCED_44_,X_INTRODUCED_45_,X_INTRODUCED_46_,X_INTRODUCED_50_,X_INTRODUCED_51_,X_INTRODUCED_53_,X_INTRODUCED_55_,X_INTRODUCED_56_,X_INTRODUCED_58_,X_INTRODUCED_60_,X_INTRODUCED_68_,X_INTRODUCED_69_,X_INTRODUCED_71_,X_INTRODUCED_74_,X_INTRODUCED_75_];
array [1..31] of var int: X_INTRODUCED_153_ ::var_is_introduced  = [X_INTRODUCED_16_,X_INTRODUCED_17_,X_INTRODUCED_19_,X_INTRODUCED_20_,X_INTRODUCED_21_,X_INTRODUCED_23_,X_INTRODUCED_26_,X_INTRODUCED_29_,X_INTRODUCED_31_,X_INTRODUCED_32_,X_INTRODUCED_33_,X_INTRODUCED_37_,X_INTRODUCED_41_,X_INTRODUCED_48_,X_INTRODUCED_50_,X_INTRODUCED_52_,X_INTRODUCED_53_,X_INTRODUCED_55_,X_INTRODUCED_56_,X_INTRODUCED_57_,X_INTRODUCED_58_,X_INTRODUCED_59_,X_INTRODUCED_60_,X_INTRODUCED_61_,X_INTRODUCED_62_,X_INTRODUCED_63_,X_INTRODUCED_64_,X_INTRODUCED_70_,X_INTRODUCED_72_,X_INTRODUCED_73_,X_INTRODUCED_75_];
array [1..32] of var int: X_INTRODUCED_156_ ::var_is_introduced  = [X_INTRODUCED_16_,X_INTRODUCED_17_,X_INTRODUCED_18_,X_INTRODUCED_20_,X_INTRODUCED_24_,X_INTRODUCED_25_,X_INTRODUCED_30_,X_INTRODUCED_31_,X_INTRODUCED_34_,X_INTRODUCED_35_,X_INTRODUCED_36_,X_INTRODUCED_38_,X_INTRODUCED_39_,X_INTRODUCED_41_,X_INTRODUCED_42_,X_INTRODUCED_43_,X_INTRODUCED_47_,X_INTRODUCED_49_,X_INTRODUCED_51_,X_INTRODUCED_54_,X_INTRODUCED_56_,X_INTRODUCED_57_,X_INTRODUCED_58_,X_INTRODUCED_59_,X_INTRODUCED_60_,X_INTRODUCED_62_,X_INTRODUCED_65_,X_INTRODUCED_67_,X_INTRODUCED_70_,X_INTRODUCED_71_,X_INTRODUCED_74_,X_INTRODUCED_75_];
constraint int_lin_le(X_INTRODUCED_78_,[X_INTRODUCED_16_,X_INTRODUCED_19_],-10);
constraint int_lin_le(X_INTRODUCED_78_,[X_INTRODUCED_16_,X_INTRODUCED_24_],-10);
constraint int_lin_le(X_INTRODUCED_78_,[X_INTRODUCED_17_,X_INTRODUCED_21_],-8);
constraint int_lin_le(X_INTRODUCED_78_,[X_INTRODUCED_17_,X_INTRODUCED_26_],-8);
constraint int_lin_le(X_INTRODUCED_78_,[X_INTRODUCED_17_,X_INTRODUCED_31_],-8);
constraint int_lin_le(X_INTRODUCED_78_,[X_INTRODUCED_18_,X_INTRODUCED_20_],-1);
constraint int_lin_le(X_INTRODUCED_78_,[X_INTRODUCED_18_,X_INTRODUCED_30_],-1);
constraint int_lin_le(X_INTRODUCED_78_,[X_INTRODUCED_18_,X_INTRODUCED_33_],-1);
constraint int_lin_le(X_INTRODUCED_78_,[X_INTRODUCED_19_,X_INTRODUCED_25_],-3);
constraint int_lin_le(X_INTRODUCED_78_,[X_INTRODUCED_19_,X_INTRODUCED_38_],-3);
constraint int_lin_le(X_INTRODUCED_78_,[X_INTRODUCED_20_,X_INTRODUCED_23_],-1);
constraint int_lin_le(X_INTRODUCED_78_,[X_INTRODUCED_20_,X_INTRODUCED_37_],-1);
constraint int_lin_le(X_INTRODUCED_78_,[X_INTRODUCED_20_,X_INTRODUCED_41_],-1);
constraint int_lin_le(X_INTRODUCED_78_,[X_INTRODUCED_21_,X_INTRODUCED_22_],-9);
constraint int_lin_le(X_INTRODUCED_78_,[X_INTRODUCED_21_,X_INTRODUCED_43_],-9);
constraint int_lin_le(X_INTRODUCED_78_,[X_INTRODUCED_22_,X_INTRODUCED_29_],-7);
constraint int_lin_le(X_INTRODUCED_78_,[X_INTRODUCED_22_,X_INTRODUCED_53_],-7);
constraint int_lin_le(X_INTRODUCED_78_,[X_INTRODUCED_23_,X_INTRODUCED_44_],-1);
constraint int_lin_le(X_INTRODUCED_78_,[X_INTRODUCED_23_,X_INTRODUCED_66_],-1);
constraint int_lin_le(X_INTRODUCED_78_,[X_INTRODUCED_23_,X_INTRODUCED_75_],-1);
constraint int_lin_le(X_INTRODUCED_78_,[X_INTRODUCED_24_,X_INTRODUCED_27_],-7);
constraint int_lin_le(X_INTRODUCED_78_,[X_INTRODUCED_24_,X_INTRODUCED_35_],-7);
constraint int_lin_le(X_INTRODUCED_78_,[X_INTRODUCED_24_,X_INTRODUCED_65_],-7);
constraint int_lin_le(X_INTRODUCED_78_,[X_INTRODUCED_25_,X_INTRODUCED_33_],-6);
constraint int_lin_le(X_INTRODUCED_78_,[X_INTRODUCED_25_,X_INTRODUCED_50_],-6);
constraint int_lin_le(X_INTRODUCED_78_,[X_INTRODUCED_25_,X_INTRODUCED_70_],-6);
constraint int_lin_le(X_INTRODUCED_78_,[X_INTRODUCED_26_,X_INTRODUCED_28_],-2);
constraint int_lin_le(X_INTRODUCED_78_,[X_INTRODUCED_26_,X_INTRODUCED_32_],-2);
constraint int_lin_le(X_INTRODUCED_78_,[X_INTRODUCED_26_,X_INTRODUCED_57_],-2);
constraint int_lin_le(X_INTRODUCED_78_,[X_INTRODUCED_27_,X_INTRODUCED_30_],-6);
constraint int_lin_le(X_INTRODUCED_78_,[X_INTRODUCED_28_,X_INTRODUCED_34_],-10);
constraint int_lin_le(X_INTRODUCED_78_,[X_INTRODUCED_28_,X_INTRODUCED_36_],-10);
constraint int_lin_le(X_INTRODUCED_78_,[X_INTRODUCED_28_,X_INTRODUCED_42_],-10);
constraint int_lin_le(X_INTRODUCED_78_,[X_INTRODUCED_29_,X_INTRODUCED_55_],-6);
constraint int_lin_le(X_INTRODUCED_78_,[X_INTRODUCED_29_,X_INTRODUCED_61_],-6);
constraint int_lin_le(X_INTRODUCED_78_,[X_INTRODUCED_29_,X_INTRODUCED_68_],-6);
constraint int_lin_le(X_INTRODUCED_78_,[X_INTRODUCED_30_,X_INTRODUCED_52_],-3);
constraint int_lin_le(X_INTRODUCED_78_,[X_INTRODUCED_30_,X_INTRODUCED_67_],-3);
constraint int_lin_le(X_INTRODUCED_78_,[X_INTRODUCED_30_,X_INTRODUCED_69_],-3);
constraint int_lin_le(X_INTRODUCED_78_,[X_INTRODUCED_31_,X_INTRODUCED_59_],-1);
constraint int_lin_le(X_INTRODUCED_78_,[X_INTRODUCED_32_,X_INTRODUCED_45_],-2);
constraint int_lin_le(X_INTRODUCED_78_,[X_INTRODUCED_33_,X_INTRODUCED_46_],-3);
constraint int_lin_le(X_INTRODUCED_78_,[X_INTRODUCED_33_,X_INTRODUCED_52_],-3);
constraint int_lin_le(X_INTRODUCED_78_,[X_INTRODUCED_34_,X_INTRODUCED_38_],-8);
constraint int_lin_le(X_INTRODUCED_78_,[X_INTRODUCED_35_,X_INTRODUCED_42_],-8);
constraint int_lin_le(X_INTRODUCED_78_,[X_INTRODUCED_36_,X_INTRODUCED_39_],-3);
constraint int_lin_le(X_INTRODUCED_78_,[X_INTRODUCED_36_,X_INTRODUCED_48_],-3);
constraint int_lin_le(X_INTRODUCED_78_,[X_INTRODUCED_36_,X_INTRODUCED_55_],-3);
constraint int_lin_le(X_INTRODUCED_78_,[X_INTRODUCED_37_,X_INTRODUCED_47_],-8);
constraint int_lin_le(X_INTRODUCED_78_,[X_INTRODUCED_37_,X_INTRODUCED_54_],-8);
constraint int_lin_le(X_INTRODUCED_78_,[X_INTRODUCED_38_,X_INTRODUCED_40_],-5);
constraint int_lin_le(X_INTRODUCED_78_,[X_INTRODUCED_38_,X_INTRODUCED_49_],-5);
constraint int_lin_le(X_INTRODUCED_78_,[X_INTRODUCED_39_,X_INTRODUCED_43_],-3);
constraint int_lin_le(X_INTRODUCED_78_,[X_INTRODUCED_40_,X_INTRODUCED_44_],-8);
constraint int_lin_le(X_INTRODUCED_78_,[X_INTRODUCED_41_,X_INTRODUCED_56_],-5);
constraint int_lin_le(X_INTRODUCED_78_,[X_INTRODUCED_41_,X_INTRODUCED_71_],-5);
constraint int_lin_le(X_INTRODUCED_78_,[X_INTRODUCED_42_,X_INTRODUCED_44_],-9);
constraint int_lin_le(X_INTRODUCED_78_,[X_INTRODUCED_42_,X_INTRODUCED_51_],-9);
constraint int_lin_le(X_INTRODUCED_78_,[X_INTRODUCED_42_,X_INTRODUCED_75_],-9);
constraint int_lin_le(X_INTRODUCED_78_,[X_INTRODUCED_43_,X_INTRODUCED_60_],-4);
constraint int_lin_le(X_INTRODUCED_78_,[X_INTRODUCED_43_,X_INTRODUCED_71_],-4);
constraint int_lin_le(X_INTRODUCED_78_,[X_INTRODUCED_44_,X_INTRODUCED_58_],-6);
constraint int_lin_le(X_INTRODUCED_78_,[X_INTRODUCED_44_,X_INTRODUCED_62_],-6);
constraint int_lin_le(X_INTRODUCED_78_,[X_INTRODUCED_45_,X_INTRODUCED_49_],-9);
constraint int_lin_le(X_INTRODUCED_78_,[X_INTRODUCED_45_,X_INTRODUCED_58_],-9);
constraint int_lin_le(X_INTRODUCED_78_,[X_INTRODUCED_46_,X_INTRODUCED_51_],-6);
constraint int_lin_le(X_INTRODUCED_78_,[X_INTRODUCED_46_,X_INTRODUCED_64_],-6);
constraint int_lin_le(X_INTRODUCED_78_,[X_INTRODUCED_47_,X_INTRODUCED_48_],-8);
constraint int_lin_le(X_INTRODUCED_78_,[X_INTRODUCED_47_,X_INTRODUCED_51_],-8);
constraint int_lin_le(X_INTRODUCED_78_,[X_INTRODUCED_47_,X_INTRODUCED_63_],-8);
constraint int_lin_le(X_INTRODUCED_78_,[X_INTRODUCED_48_,X_INTRODUCED_59_],-6);
constraint int_lin_le(X_INTRODUCED_78_,[X_INTRODUCED_49_,X_INTRODUCED_61_],-1);
constraint int_lin_le(X_INTRODUCED_78_,[X_INTRODUCED_49_,X_INTRODUCED_62_],-1);
constraint int_lin_le(X_INTRODUCED_78_,[X_INTRODUCED_50_,X_INTRODUCED_54_],-4);
constraint int_lin_le(X_INTRODUCED_78_,[X_INTRODUCED_51_,X_INTRODUCED_66_],-1);
constraint int_lin_le(X_INTRODUCED_78_,[X_INTRODUCED_52_,X_INTRODUCED_60_],-9);
constraint int_lin_le(X_INTRODUCED_78_,[X_INTRODUCED_53_,X_INTRODUCED_56_],-4);
constraint int_lin_le(X_INTRODUCED_78_,[X_INTRODUCED_53_,X_INTRODUCED_57_],-4);
constraint int_lin_le(X_INTRODUCED_78_,[X_INTRODUCED_53_,X_INTRODUCED_70_],-4);
constraint int_lin_le(X_INTRODUCED_78_,[X_INTRODUCED_54_,X_INTRODUCED_57_],-6);
constraint int_lin_le(X_INTRODUCED_78_,[X_INTRODUCED_54_,X_INTRODUCED_59_],-6);
constraint int_lin_le(X_INTRODUCED_78_,[X_INTRODUCED_55_,X_INTRODUCED_67_],-1);
constraint int_lin_le(X_INTRODUCED_78_,[X_INTRODUCED_55_,X_INTRODUCED_69_],-1);
constraint int_lin_le(X_INTRODUCED_78_,[X_INTRODUCED_55_,X_INTRODUCED_70_],-1);
constraint int_lin_le(X_INTRODUCED_78_,[X_INTRODUCED_56_,X_INTRODUCED_67_],-2);
constraint int_lin_le(X_INTRODUCED_78_,[X_INTRODUCED_57_,X_INTRODUCED_60_],-3);
constraint int_lin_le(X_INTRODUCED_78_,[X_INTRODUCED_58_,X_INTRODUCED_73_],-4);
constraint int_lin_le(X_INTRODUCED_78_,[X_INTRODUCED_59_,X_INTRODUCED_62_],-10);
constraint int_lin_le(X_INTRODUCED_78_,[X_INTRODUCED_59_,X_INTRODUCED_64_],-10);
constraint int_lin_le(X_INTRODUCED_78_,[X_INTRODUCED_59_,X_INTRODUCED_65_],-10);
constraint int_lin_le(X_INTRODUCED_78_,[X_INTRODUCED_60_,X_INTRODUCED_61_],-3);
constraint int_lin_le(X_INTRODUCED_78_,[X_INTRODUCED_61_,X_INTRODUCED_63_],-5);
constraint int_lin_le(X_INTRODUCED_78_,[X_INTRODUCED_61_,X_INTRODUCED_64_],-5);
constraint int_lin_le(X_INTRODUCED_78_,[X_INTRODUCED_62_,X_INTRODUCED_72_],-5);
constraint int_lin_le(X_INTRODUCED_78_,[X_INTRODUCED_63_,X_INTRODUCED_75_],-6);
constraint int_lin_le(X_INTRODUCED_78_,[X_INTRODUCED_64_,X_INTRODUCED_74_],-8);
constraint int_lin_le(X_INTRODUCED_78_,[X_INTRODUCED_65_,X_INTRODUCED_66_],-5);
constraint int_lin_le(X_INTRODUCED_78_,[X_INTRODUCED_65_,X_INTRODUCED_68_],-5);
constraint int_lin_le(X_INTRODUCED_78_,[X_INTRODUCED_66_,X_INTRODUCED_69_],-5);
constraint int_lin_le(X_INTRODUCED_78_,[X_INTRODUCED_67_,X_INTRODUCED_72_],-5);
constraint int_lin_le(X_INTRODUCED_78_,[X_INTRODUCED_67_,X_INTRODUCED_73_],-5);
constraint int_lin_le(X_INTRODUCED_78_,[X_INTRODUCED_68_,X_INTRODUCED_73_],-10);
constraint int_lin_le(X_INTRODUCED_78_,[X_INTRODUCED_69_,X_INTRODUCED_71_],-10);
constraint int_lin_le(X_INTRODUCED_78_,[X_INTRODUCED_70_,X_INTRODUCED_72_],-9);
constraint int_lin_le(X_INTRODUCED_78_,[X_INTRODUCED_71_,X_INTRODUCED_74_],-9);
constraint int_lin_le(X_INTRODUCED_78_,[X_INTRODUCED_72_,X_INTRODUCED_74_],-5);
constraint bool_clause([X_INTRODUCED_135_,X_INTRODUCED_136_],[]);
constraint bool_clause([X_INTRODUCED_137_,X_INTRODUCED_138_],[]);
constraint bool_clause([X_INTRODUCED_139_,X_INTRODUCED_140_],[]);
constraint bool_clause([X_INTRODUCED_141_,X_INTRODUCED_142_],[]);
constraint bool_clause([X_INTRODUCED_143_,X_INTRODUCED_144_],[]);
constraint minicpp_cumulative(X_INTRODUCED_147_,X_INTRODUCED_146_,X_INTRODUCED_145_,25);
constraint minicpp_cumulative(X_INTRODUCED_150_,X_INTRODUCED_149_,X_INTRODUCED_148_,17);
constraint minicpp_cumulative(X_INTRODUCED_153_,X_INTRODUCED_152_,X_INTRODUCED_151_,31);
constraint minicpp_cumulative(X_INTRODUCED_156_,X_INTRODUCED_155_,X_INTRODUCED_154_,32);
constraint int_lin_le_imp(X_INTRODUCED_78_,[X_INTRODUCED_16_,X_INTRODUCED_37_],-10,X_INTRODUCED_135_):: defines_var(X_INTRODUCED_135_);
constraint int_lin_le_imp(X_INTRODUCED_78_,[X_INTRODUCED_37_,X_INTRODUCED_16_],-8,X_INTRODUCED_136_):: defines_var(X_INTRODUCED_136_);
constraint int_lin_le_imp(X_INTRODUCED_78_,[X_INTRODUCED_16_,X_INTRODUCED_40_],-10,X_INTRODUCED_137_):: defines_var(X_INTRODUCED_137_);
constraint int_lin_le_imp(X_INTRODUCED_78_,[X_INTRODUCED_40_,X_INTRODUCED_16_],-8,X_INTRODUCED_138_):: defines_var(X_INTRODUCED_138_);
constraint int_lin_le_imp(X_INTRODUCED_78_,[X_INTRODUCED_37_,X_INTRODUCED_40_],-8,X_INTRODUCED_139_):: defines_var(X_INTRODUCED_139_);
constraint int_lin_le_imp(X_INTRODUCED_78_,[X_INTRODUCED_40_,X_INTRODUCED_37_],-8,X_INTRODUCED_140_):: defines_var(X_INTRODUCED_140_);
constraint int_lin_le_imp(X_INTRODUCED_78_,[X_INTRODUCED_37_,X_INTRODUCED_60_],-8,X_INTRODUCED_141_):: defines_var(X_INTRODUCED_141_);
constraint int_lin_le_imp(X_INTRODUCED_78_,[X_INTRODUCED_60_,X_INTRODUCED_37_],-3,X_INTRODUCED_142_):: defines_var(X_INTRODUCED_142_);
constraint int_lin_le_imp(X_INTRODUCED_78_,[X_INTRODUCED_40_,X_INTRODUCED_60_],-8,X_INTRODUCED_143_):: defines_var(X_INTRODUCED_143_);
constraint int_lin_le_imp(X_INTRODUCED_78_,[X_INTRODUCED_60_,X_INTRODUCED_40_],-3,X_INTRODUCED_144_):: defines_var(X_INTRODUCED_144_);
solve :: int_search(s,smallest,indomain_min,complete) satisfy;
